16
1 0 7
2 0 9
2 1 23
3 0 3
3 1 2
3 2 12
4 0 2
4 1 4
4 2 15
4 3 10
5 0 16
5 1 11
5 2 8
5 3 12
5 4 2
6 0 6
6 1 23
6 2 8
6 3 7
6 4 11
6 5 1
7 0 23
7 1 22
7 2 2
7 3 22
7 4 9
7 5 19
7 6 15
8 0 5
8 1 5
8 2 24
8 3 7
8 4 1
8 5 5
8 6 3
8 7 12
9 0 11
9 1 24
9 2 19
9 3 22
9 4 1
9 5 12
9 6 17
9 7 22
9 8 3
10 0 3
10 1 17
10 2 20
10 3 18
10 4 12
10 5 1
10 6 12
10 7 1
10 8 5
10 9 24
11 0 10
11 1 24
11 2 7
11 3 14
11 4 22
11 5 10
11 6 10
11 7 21
11 8 5
11 9 18
11 10 21
12 0 11
12 1 23
12 2 21
12 3 7
12 4 9
12 5 22
12 6 12
12 7 1
12 8 18
12 9 16
12 10 24
12 11 9
13 0 19
13 1 13
13 2 24
13 3 3
13 4 24
13 5 9
13 6 8
13 7 11
13 8 21
13 9 14
13 10 22
13 11 7
13 12 6
14 0 13
14 1 24
14 2 24
14 3 6
14 4 12
14 5 3
14 6 19
14 7 2
14 8 14
14 9 14
14 10 11
14 11 21
14 12 6
14 13 19
15 0 1
15 1 12
15 2 13
15 3 18
15 4 23
15 5 17
15 6 23
15 7 23
15 8 9
15 9 15
15 10 19
15 11 21
15 12 14
15 13 10
15 14 1
